90
1979
10
68
66
4
86
74
17
77
10
94
67
0 4
0 5
0 12
0 13
0 15
0 16
0 18
0 20
0 21
0 22
0 24
0 25
0 26
0 28
0 30
0 32
0 34
0 35
0 36
0 37
0 40
0 42
0 45
0 46
0 47
0 52
0 54
0 55
0 58
0 59
0 60
0 65
0 66
0 67
0 68
0 69
0 74
0 75
0 77
0 78
0 79
0 80
0 84
0 87
0 88
1 3
1 4
1 5
1 6
1 7
1 8
1 11
1 14
1 15
1 16
1 18
1 20
1 21
1 22
1 23
1 24
1 25
1 29
1 31
1 37
1 38
1 40
1 42
1 43
1 45
1 50
1 52
1 54
1 55
1 56
1 59
1 64
1 66
1 69
1 70
1 72
1 73
1 77
1 78
1 82
1 83
1 84
1 85
1 86
1 89
2 3
2 4
2 5
2 6
2 7
2 9
2 10
2 12
2 15
2 20
2 22
2 26
2 29
2 30
2 31
2 32
2 35
2 38
2 41
2 42
2 51
2 54
2 59
2 60
2 61
2 62
2 64
2 66
2 69
2 70
2 72
2 74
2 75
2 76
2 80
2 82
2 83
2 84
2 85
2 88
3 4
3 5
3 8
3 10
3 11
3 12
3 13
3 14
3 15
3 16
3 17
3 18
3 20
3 21
3 22
3 24
3 28
3 32
3 33
3 35
3 36
3 37
3 41
3 42
3 47
3 49
3 51
3 52
3 54
3 58
3 59
3 60
3 61
3 62
3 65
3 66
3 70
3 72
3 74
3 75
3 76
3 78
3 79
3 80
3 84
3 85
3 86
3 87
4 5
4 6
4 9
4 11
4 15
4 18
4 19
4 21
4 22
4 23
4 27
4 32
4 33
4 34
4 35
4 36
4 37
4 39
4 41
4 42
4 43
4 44
4 47
4 50
4 51
4 53
4 54
4 55
4 58
4 59
4 61
4 64
4 65
4 66
4 67
4 68
4 70
4 72
4 73
4 77
4 79
4 80
4 81
4 83
4 84
4 89
5 6
5 7
5 8
5 10
5 11
5 12
5 16
5 17
5 20
5 22
5 24
5 25
5 29
5 31
5 35
5 36
5 37
5 39
5 40
5 41
5 42
5 44
5 45
5 46
5 48
5 49
5 50
5 51
5 52
5 53
5 54
5 56
5 57
5 58
5 59
5 60
5 64
5 65
5 66
5 67
5 70
5 71
5 72
5 74
5 76
5 78
5 80
5 81
5 82
5 83
5 85
5 86
5 87
6 7
6 9
6 11
6 13
6 16
6 19
6 20
6 23
6 25
6 27
6 28
6 30
6 31
6 32
6 33
6 34
6 35
6 37
6 38
6 40
6 43
6 45
6 46
6 47
6 48
6 49
6 52
6 54
6 55
6 58
6 60
6 62
6 65
6 71
6 72
6 73
6 74
6 75
6 77
6 78
6 82
6 83
6 84
6 85
6 88
6 89
7 8
7 10
7 11
7 14
7 16
7 19
7 20
7 27
7 28
7 39
7 41
7 42
7 47
7 48
7 50
7 55
7 57
7 58
7 59
7 62
7 64
7 67
7 69
7 73
7 74
7 78
7 81
7 82
7 87
7 89
8 10
8 13
8 15
8 19
8 20
8 21
8 22
8 24
8 25
8 30
8 31
8 33
8 35
8 36
8 37
8 38
8 40
8 41
8 42
8 45
8 47
8 48
8 49
8 51
8 56
8 59
8 63
8 64
8 65
8 67
8 68
8 69
8 70
8 78
8 80
8 82
8 84
8 85
8 87
9 10
9 11
9 15
9 16
9 18
9 19
9 23
9 25
9 28
9 31
9 34
9 37
9 38
9 39
9 41
9 43
9 44
9 46
9 47
9 49
9 50
9 54
9 55
9 56
9 57
9 59
9 60
9 66
9 67
9 70
9 72
9 73
9 74
9 76
9 77
9 80
9 82
9 83
9 84
10 12
10 15
10 17
10 22
10 25
10 26
10 32
10 33
10 35
10 36
10 38
10 39
10 42
10 43
10 46
10 47
10 48
10 49
10 51
10 52
10 53
10 54
10 56
10 57
10 59
10 63
10 65
10 66
10 71
10 73
10 75
10 76
10 77
10 78
10 83
10 85
10 87
11 13
11 14
11 15
11 19
11 20
11 21
11 27
11 29
11 32
11 33
11 34
11 35
11 37
11 38
11 39
11 46
11 47
11 49
11 50
11 51
11 56
11 58
11 60
11 61
11 62
11 63
11 65
11 67
11 75
11 76
11 80
11 82
11 85
12 13
12 17
12 20
12 21
12 22
12 25
12 27
12 28
12 29
12 31
12 32
12 33
12 34
12 35
12 37
12 39
12 41
12 42
12 43
12 47
12 48
12 51
12 53
12 57
12 58
12 62
12 64
12 66
12 67
12 68
12 69
12 74
12 76
12 77
12 79
12 84
12 85
12 86
12 88
12 89
13 16
13 17
13 18
13 22
13 26
13 27
13 28
13 31
13 32
13 33
13 34
13 35
13 36
13 38
13 39
13 42
13 44
13 45
13 48
13 49
13 50
13 52
13 54
13 55
13 56
13 57
13 63
13 64
13 67
13 68
13 70
13 71
13 72
13 75
13 77
13 78
13 80
13 81
13 82
13 83
13 84
13 85
13 89
14 19
14 20
14 21
14 23
14 26
14 27
14 29
14 31
14 32
14 34
14 35
14 38
14 43
14 44
14 45
14 46
14 47
14 49
14 51
14 53
14 56
14 58
14 59
14 60
14 61
14 62
14 67
14 68
14 69
14 71
14 74
14 77
14 78
14 79
14 83
14 84
14 85
14 86
14 87
14 89
15 18
15 19
15 20
15 21
15 22
15 23
15 27
15 31
15 33
15 35
15 36
15 39
15 41
15 44
15 45
15 47
15 48
15 50
15 53
15 54
15 55
15 56
15 57
15 59
15 62
15 63
15 64
15 67
15 68
15 70
15 71
15 73
15 74
15 75
15 77
15 78
15 80
15 81
15 83
15 84
15 85
15 88
15 89
16 17
16 23
16 24
16 30
16 31
16 32
16 33
16 35
16 39
16 40
16 42
16 43
16 44
16 46
16 47
16 49
16 51
16 57
16 59
16 61
16 65
16 68
16 70
16 72
16 74
16 75
16 77
16 78
16 80
16 81
16 83
16 84
16 85
16 89
17 19
17 20
17 23
17 25
17 26
17 29
17 30
17 31
17 34
17 37
17 39
17 42
17 43
17 48
17 49
17 52
17 54
17 55
17 59
17 61
17 62
17 66
17 67
17 68
17 69
17 71
17 72
17 73
17 74
17 76
17 80
17 81
17 83
17 85
17 89
18 19
18 20
18 22
18 23
18 25
18 28
18 30
18 32
18 35
18 38
18 40
18 44
18 45
18 47
18 48
18 51
18 53
18 59
18 62
18 63
18 67
18 69
18 70
18 72
18 73
18 75
18 76
18 79
18 82
18 85
18 88
19 20
19 23
19 26
19 27
19 28
19 29
19 30
19 31
19 32
19 33
19 34
19 37
19 48
19 52
19 53
19 57
19 60
19 63
19 67
19 68
19 69
19 72
19 73
19 74
19 77
19 78
19 79
19 80
19 82
19 83
20 21
20 22
20 23
20 24
20 25
20 27
20 29
20 32
20 33
20 35
20 39
20 40
20 47
20 49
20 50
20 51
20 53
20 54
20 57
20 59
20 62
20 66
20 69
20 70
20 71
20 73
20 74
20 76
20 78
20 86
21 22
21 23
21 26
21 29
21 32
21 35
21 43
21 44
21 45
21 46
21 49
21 51
21 54
21 56
21 59
21 61
21 63
21 65
21 67
21 69
21 71
21 72
21 77
21 78
21 81
21 87
22 23
22 25
22 26
22 31
22 32
22 33
22 34
22 38
22 39
22 41
22 42
22 43
22 45
22 48
22 50
22 58
22 59
22 62
22 63
22 64
22 67
22 69
22 70
22 73
22 74
22 75
22 76
22 78
22 79
22 81
22 83
22 84
22 89
23 24
23 31
23 32
23 33
23 40
23 41
23 45
23 46
23 48
23 50
23 52
23 55
23 56
23 62
23 64
23 71
23 72
23 76
23 77
23 78
23 79
23 80
23 81
23 83
23 86
23 87
23 89
24 25
24 26
24 28
24 30
24 31
24 32
24 34
24 35
24 38
24 40
24 41
24 42
24 43
24 44
24 45
24 46
24 47
24 49
24 50
24 51
24 52
24 54
24 55
24 56
24 58
24 59
24 61
24 66
24 67
24 69
24 71
24 72
24 73
24 79
24 81
24 84
24 85
24 86
24 87
24 89
25 27
25 30
25 32
25 34
25 35
25 38
25 39
25 43
25 44
25 46
25 47
25 48
25 49
25 51
25 52
25 53
25 54
25 56
25 59
25 62
25 63
25 64
25 66
25 69
25 70
25 71
25 72
25 73
25 80
25 88
26 27
26 28
26 29
26 30
26 31
26 33
26 34
26 36
26 39
26 42
26 43
26 47
26 49
26 50
26 53
26 55
26 56
26 57
26 58
26 60
26 61
26 64
26 66
26 73
26 75
26 76
26 79
26 80
26 86
27 28
27 29
27 32
27 33
27 34
27 37
27 38
27 40
27 43
27 44
27 45
27 46
27 49
27 50
27 51
27 52
27 53
27 55
27 57
27 60
27 62
27 64
27 65
27 70
27 71
27 74
27 75
27 78
27 79
27 81
27 84
27 87
27 88
27 89
28 29
28 30
28 32
28 35
28 36
28 37
28 38
28 39
28 41
28 43
28 44
28 45
28 46
28 47
28 49
28 50
28 51
28 56
28 57
28 58
28 59
28 60
28 61
28 64
28 67
28 74
28 78
28 81
28 85
29 33
29 34
29 37
29 40
29 42
29 51
29 53
29 54
29 55
29 57
29 58
29 59
29 61
29 62
29 65
29 68
29 69
29 71
29 74
29 75
29 76
29 79
29 80
29 83
29 84
29 85
29 88
29 89
30 31
30 38
30 40
30 42
30 43
30 44
30 47
30 48
30 49
30 52
30 55
30 58
30 59
30 60
30 63
30 64
30 71
30 73
30 75
30 78
30 81
30 83
30 86
31 32
31 33
31 36
31 37
31 40
31 42
31 43
31 44
31 46
31 47
31 48
31 49
31 50
31 51
31 52
31 53
31 54
31 55
31 56
31 57
31 60
31 61
31 62
31 63
31 64
31 66
31 70
31 71
31 73
31 74
31 75
31 76
31 78
31 80
31 81
31 82
31 83
31 85
31 87
31 88
31 89
32 33
32 36
32 38
32 39
32 42
32 44
32 51
32 53
32 55
32 58
32 59
32 61
32 62
32 63
32 64
32 65
32 69
32 73
32 74
32 81
32 85
32 86
32 87
32 88
32 89
33 35
33 36
33 38
33 43
33 44
33 50
33 53
33 62
33 63
33 66
33 68
33 69
33 70
33 71
33 73
33 75
33 78
33 79
33 80
33 83
33 84
33 86
33 87
33 88
34 35
34 36
34 37
34 38
34 39
34 41
34 42
34 43
34 44
34 45
34 48
34 50
34 54
34 58
34 59
34 60
34 64
34 66
34 67
34 70
34 71
34 72
34 73
34 74
34 77
34 78
34 80
34 82
34 84
34 85
34 86
34 87
34 89
35 36
35 38
35 39
35 40
35 44
35 46
35 51
35 54
35 55
35 57
35 59
35 61
35 62
35 63
35 64
35 67
35 71
35 72
35 73
35 75
35 76
35 77
35 78
35 82
35 84
35 87
35 88
35 89
36 41
36 42
36 44
36 45
36 46
36 47
36 49
36 54
36 60
36 63
36 65
36 69
36 73
36 75
36 76
36 78
36 80
36 82
36 84
36 88
36 89
37 40
37 45
37 46
37 49
37 50
37 51
37 55
37 57
37 60
37 61
37 66
37 67
37 69
37 70
37 71
37 74
37 75
37 76
37 77
37 79
37 81
37 82
37 85
37 86
37 87
37 88
38 39
38 43
38 44
38 48
38 50
38 51
38 55
38 57
38 58
38 60
38 61
38 65
38 66
38 67
38 70
38 73
38 77
38 78
38 84
38 85
38 88
39 40
39 41
39 42
39 44
39 45
39 46
39 51
39 53
39 59
39 60
39 61
39 63
39 68
39 71
39 72
39 73
39 74
39 75
39 81
39 82
39 83
39 87
39 89
40 41
40 42
40 43
40 44
40 46
40 51
40 52
40 54
40 59
40 62
40 64
40 65
40 66
40 67
40 69
40 71
40 74
40 75
40 76
40 78
40 81
40 82
40 85
40 86
40 89
41 46
41 49
41 52
41 55
41 56
41 57
41 60
41 62
41 65
41 67
41 69
41 70
41 73
41 76
41 77
41 81
41 82
41 85
41 88
42 45
42 46
42 50
42 54
42 55
42 56
42 59
42 61
42 63
42 65
42 68
42 69
42 75
42 76
42 79
42 81
42 84
42 85
42 86
42 87
43 44
43 47
43 48
43 49
43 51
43 55
43 57
43 58
43 59
43 60
43 61
43 64
43 65
43 66
43 69
43 70
43 72
43 73
43 74
43 78
43 79
43 80
43 81
43 83
43 84
43 86
43 89
44 47
44 48
44 49
44 52
44 53
44 54
44 56
44 57
44 59
44 60
44 64
44 68
44 69
44 70
44 71
44 73
44 74
44 75
44 76
44 77
44 79
44 80
44 82
44 83
44 84
44 85
44 87
44 88
44 89
45 47
45 49
45 50
45 52
45 54
45 56
45 62
45 64
45 66
45 71
45 72
45 73
45 75
45 76
45 77
45 78
45 81
45 83
45 84
45 86
45 87
45 88
46 47
46 48
46 50
46 51
46 52
46 53
46 56
46 59
46 61
46 65
46 68
46 69
46 73
46 77
46 79
46 80
46 82
46 83
46 86
46 87
46 88
46 89
47 48
47 49
47 53
47 57
47 58
47 59
47 60
47 61
47 64
47 67
47 68
47 71
47 75
47 76
47 78
47 85
47 88
47 89
48 49
48 51
48 52
48 53
48 54
48 55
48 57
48 62
48 63
48 64
48 73
48 78
48 81
48 83
48 85
48 87
49 50
49 53
49 56
49 57
49 58
49 60
49 61
49 62
49 66
49 67
49 68
49 69
49 73
49 75
49 76
49 78
49 82
49 83
49 87
49 89
50 51
50 52
50 53
50 54
50 55
50 57
50 58
50 60
50 61
50 63
50 64
50 67
50 68
50 71
50 72
50 73
50 76
50 77
50 78
50 79
50 82
50 83
50 86
50 87
51 53
51 58
51 62
51 70
51 71
51 72
51 75
51 76
51 77
51 78
51 79
51 80
51 82
51 86
51 87
51 88
51 89
52 53
52 54
52 55
52 56
52 57
52 58
52 59
52 61
52 62
52 63
52 65
52 66
52 69
52 71
52 76
52 77
52 79
52 80
52 83
52 84
52 86
53 54
53 56
53 58
53 59
53 60
53 62
53 63
53 65
53 70
53 71
53 73
53 76
53 77
53 80
53 81
53 82
53 84
53 86
53 89
54 55
54 56
54 57
54 58
54 59
54 62
54 63
54 64
54 65
54 66
54 67
54 69
54 70
54 71
54 72
54 73
54 74
54 76
54 77
54 83
54 84
54 88
54 89
55 57
55 63
55 64
55 66
55 70
55 72
55 74
55 76
55 78
55 80
55 81
55 82
55 83
55 86
55 89
56 57
56 58
56 59
56 61
56 65
56 67
56 68
56 70
56 71
56 72
56 73
56 76
56 77
56 78
56 79
56 80
56 81
56 82
56 83
56 84
56 85
56 86
56 87
56 88
57 60
57 61
57 68
57 69
57 71
57 75
57 79
57 80
57 81
57 83
57 86
57 87
57 89
58 59
58 60
58 61
58 63
58 64
58 65
58 67
58 68
58 73
58 74
58 75
58 80
58 82
58 86
58 87
59 60
59 62
59 64
59 66
59 68
59 78
59 81
59 89
60 61
60 62
60 64
60 68
60 69
60 70
60 74
60 77
60 81
60 82
60 84
60 86
60 88
61 64
61 66
61 67
61 70
61 72
61 73
61 77
61 78
61 79
61 85
61 86
61 87
61 89
62 63
62 65
62 68
62 69
62 71
62 72
62 73
62 77
62 78
62 81
62 82
62 85
62 86
62 88
62 89
63 64
63 65
63 67
63 71
63 74
63 78
63 82
63 83
63 84
63 85
63 86
64 68
64 71
64 75
64 79
64 80
64 84
64 85
64 86
64 87
64 88
65 66
65 68
65 71
65 72
65 79
65 81
65 82
65 83
65 84
65 86
65 88
66 68
66 70
66 71
66 73
66 76
66 77
66 78
66 81
66 82
66 83
66 84
66 85
66 87
66 88
67 68
67 69
67 70
67 71
67 72
67 75
67 77
67 79
67 83
67 86
67 88
67 89
68 73
68 74
68 77
68 79
68 81
68 82
68 84
68 85
68 86
68 87
68 88
68 89
69 70
69 71
69 72
69 73
69 75
69 77
69 79
69 80
69 82
69 86
70 73
70 75
70 76
70 77
70 78
70 80
70 81
70 87
70 88
70 89
71 75
71 79
71 80
71 81
71 85
71 87
71 88
72 76
72 78
72 80
72 85
72 88
73 74
73 75
73 78
73 80
73 81
73 83
73 84
73 87
73 88
73 89
74 77
74 78
74 79
74 80
74 84
74 85
74 87
74 88
74 89
75 76
75 78
75 79
75 80
75 82
75 85
75 88
76 81
76 83
76 84
76 85
76 86
76 89
77 82
77 85
77 86
77 88
77 89
78 79
78 82
78 83
78 84
78 85
78 87
79 80
79 81
79 82
79 83
79 87
80 81
80 82
80 86
80 87
81 83
81 85
81 87
81 89
82 83
82 84
82 85
82 89
83 84
83 86
83 87
83 88
83 89
84 87
85 86
85 88
85 89
86 88
88 89
4 8 10 7 82 51 69 13 11
20 33 55 74 42 2 17 25 43
63 64 49 12 16 30 29 54 85
40 84 52 19 77 45 68 71 41
62 39 32 22 31 0 27 76 44
28 60 14 78 59 72 80 65 9
79 24 73 81 89 36 56 26 48
3 47 5 58 34 6 88 18 67
37 1 57 50 83 23 46 75 86
21 15 35 70 87 38 61 53 66
